results_rootrelaxation/bin012_080_041.srr.sol
solution status: optimal solution found
objective value:                     19.1155462184874
_var138_                             0.15546218487395 	(obj:2)
_var694_                           0.0105042016806732 	(obj:1)
_var729_                            0.281512605042017 	(obj:2)
_var733_                            0.165966386554626 	(obj:0)
_var752_                           0.0147058823529401 	(obj:2)
_var754_                            0.439075630252101 	(obj:1)
_var759_                            0.296218487394957 	(obj:1)
_var767_                           0.0189075630252101 	(obj:2)
_var768_                            0.542016806722689 	(obj:2)
_var779_                             0.30672268907563 	(obj:2)
_var780_                            0.411764705882352 	(obj:1)
_var781_                            0.157563025210082 	(obj:1)
_var799_                            0.203781512605039 	(obj:0)
_var804_                            0.401260504201678 	(obj:1)
_var805_                            0.123949579831935 	(obj:3)
_var806_                             0.30672268907563 	(obj:3)
_var810_                             0.30672268907563 	(obj:1)
_var814_                            0.180672268907564 	(obj:0)
_var822_                            0.121848739495797 	(obj:3)
_var829_                            0.102941176470588 	(obj:3)
_var830_                            0.046218487394957 	(obj:1)
_var831_                           0.0777310924369751 	(obj:2)
_var842_                            0.149159663865548 	(obj:2)
_var843_                           0.0588235294117648 	(obj:2)
_var847_                            0.100840336134455 	(obj:1)
_var848_                           0.0147058823529402 	(obj:2)
_var849_                            0.516806722689076 	(obj:4)
_var856_                             0.15126050420168 	(obj:2)
_var859_                            0.306722689075633 	(obj:1)
_var860_                            0.138655462184872 	(obj:2)
_var861_                            0.411764705882352 	(obj:3)
_var862_                            0.430672268907565 	(obj:1)
_var870_                           0.0714285714285717 	(obj:2)
_var873_                            0.365546218487395 	(obj:1)
_var878_                           0.0252100840336135 	(obj:2)
_var879_                             0.23109243697479 	(obj:2)
_var881_                            0.029411764705886 	(obj:3)
_var885_                            0.176470588235294 	(obj:1)
_var886_                            0.264705882352939 	(obj:1)
_var889_                            0.281512605042017 	(obj:2)
_var890_                           0.0336134453781517 	(obj:1)
_var892_                          0.00420168067226978 	(obj:2)
_var893_                            0.369747899159666 	(obj:2)
_var894_                            0.159663865546213 	(obj:2)
_var896_                             0.23109243697479 	(obj:2)
_var900_                            0.109243697478989 	(obj:2)
_var903_                            0.336134453781517 	(obj:2)
_var906_                            0.264705882352944 	(obj:1)
_var908_                          0.00420168067226989 	(obj:2)
_var916_                            0.281512605042017 	(obj:2)
_var917_                            0.262605042016806 	(obj:2)
_var919_                           0.0819327731092406 	(obj:2)
_var922_                            0.241596638655463 	(obj:2)
_var926_                          0.00630252100840067 	(obj:3)
_var927_                            0.092436974789918 	(obj:3)
_var929_                           0.0588235294117649 	(obj:2)
_var931_                            0.046218487394957 	(obj:2)
_var933_                          0.00210084033613195 	(obj:2)
_var934_                           0.0168067226890734 	(obj:2)
